NAME          MIP_VARIED_EX04
ROWS
 N   OBJ
 E   C1
 L   C2
COLUMNS
    X1       OBJ       4
    X1       C1       1
    X1       C2       1
    X2       OBJ       5
    X2       C1       3
    X2       C2       3
    X3       OBJ       6
    X3       C1       1
    X3       C2       1
RHS
    RHS1     C1        5
    RHS1     C2        4
BOUNDS
 BV BND1     X1
 BV BND1     X2
 BV BND1     X3
ENDATA